mixintcount/benchmarks/random_v2l/8_8_4466.smt2
(set-logic QF_LIA)
(set-info :ran/ran2.smt2)
(set-info :smt-lib-version 2.0)
(declare-fun x1 () Int)
(declare-fun x2 () Int)
(declare-fun x3 () Int)
(declare-fun x4 () Int)
(declare-fun x5 () Int)
(declare-fun x6 () Int)
(declare-fun x7 () Int)
(declare-fun x8 () Int)
(assert (<= (+ (* (- 10) x1) (* (- 2) x2) (* (- 2) x3) (* 1 x4) (* (- 5) x5) (* (- 9) x6) (* 7 x7) (* 0 x8) ) (- 455)))
(assert (<= (+ (* 3 x1) (* (- 10) x2) (* 4 x3) (* 10 x4) (* 8 x5) (* 10 x6) (* 7 x7) (* 2 x8) ) 656))
(assert (<= (+ (* (- 6) x1) (* (- 9) x2) (* (- 4) x3) (* 6 x4) (* 3 x5) (* 10 x6) (* 4 x7) (* (- 7) x8) ) 581))
(assert (<= (+ (* (- 3) x1) (* (- 6) x2) (* (- 10) x3) (* 10 x4) (* (- 6) x5) (* (- 2) x6) (* (- 4) x7) (* 5 x8) ) (- 3738)))
(assert (<= (+ (* (- 5) x1) (* 2 x2) (* (- 9) x3) (* 1 x4) (* (- 8) x5) (* (- 9) x6) (* (- 8) x7) (* (- 9) x8) ) 2707))
(assert (<= (+ (* (- 10) x1) (* 7 x2) (* (- 2) x3) (* (- 8) x4) (* (- 10) x5) (* (- 1) x6) (* (- 4) x7) (* 5 x8) ) 3360))
(assert (<= (+ (* (- 5) x1) (* (- 2) x2) (* (- 7) x3) (* (- 9) x4) (* 3 x5) (* (- 5) x6) (* (- 10) x7) (* 2 x8) ) 802))
(assert (<= (+ (* (- 2) x1) (* 6 x2) (* (- 8) x3) (* 10 x4) (* (- 10) x5) (* 2 x6) (* (- 10) x7) (* 1 x8) ) 3418))
(assert (<= (+ (* 10 x1) (* 2 x2) (* 4 x3) (* 6 x4) (* 2 x5) (* 0 x6) (* (- 7) x7) (* 2 x8) ) (- 3730)))
(assert (<= (+ (* 1 x1) (* 8 x2) (* (- 7) x3) (* (- 2) x4) (* (- 9) x5) (* (- 1) x6) (* (- 1) x7) (* (- 10) x8) ) 1556))
(assert (<= (+ (* 5 x1) (* (- 10) x2) (* 1 x3) (* (- 8) x4) (* (- 1) x5) (* (- 5) x6) (* (- 8) x7) (* (- 4) x8) ) (- 3053)))
(assert (<= (+ (* 5 x1) (* (- 6) x2) (* 5 x3) (* (- 3) x4) (* (- 9) x5) (* (- 4) x6) (* (- 10) x7) (* 7 x8) ) (- 570)))
(assert (<= (+ (* (- 1) x1) (* 8 x2) (* (- 1) x3) (* 6 x4) (* (- 4) x5) (* (- 6) x6) (* 7 x7) (* 5 x8) ) (- 2210)))
(assert (<= (+ (* (- 5) x1) (* (- 7) x2) (* (- 6) x3) (* (- 6) x4) (* 8 x5) (* (- 6) x6) (* 3 x7) (* 8 x8) ) (- 497)))
(assert (<= (+ (* 8 x1) (* (- 10) x2) (* 5 x3) (* (- 7) x4) (* 5 x5) (* 9 x6) (* 8 x7) (* 10 x8) ) 3410))
(assert (<= (+ (* (- 9) x1) (* 8 x2) (* 2 x3) (* 7 x4) (* (- 6) x5) (* 0 x6) (* (- 7) x7) (* 10 x8) ) 2289))
(assert (<= (+ (* 1 x1) (* 0 x2) (* 0 x3) (* 0 x4) (* 0 x5) (* 0 x6) (* 0 x7) (* 0 x8) ) 4466))
(assert (<= (+ (* (- 1) x1) (* 0 x2) (* 0 x3) (* 0 x4) (* 0 x5) (* 0 x6) (* 0 x7) (* 0 x8) ) 4466))
(assert (<= (+ (* 0 x1) (* 1 x2) (* 0 x3) (* 0 x4) (* 0 x5) (* 0 x6) (* 0 x7) (* 0 x8) ) 4466))
(assert (<= (+ (* 0 x1) (* (- 1) x2) (* 0 x3) (* 0 x4) (* 0 x5) (* 0 x6) (* 0 x7) (* 0 x8) ) 4466))
(assert (<= (+ (* 0 x1) (* 0 x2) (* 1 x3) (* 0 x4) (* 0 x5) (* 0 x6) (* 0 x7) (* 0 x8) ) 4466))
(assert (<= (+ (* 0 x1) (* 0 x2) (* (- 1) x3) (* 0 x4) (* 0 x5) (* 0 x6) (* 0 x7) (* 0 x8) ) 4466))
(assert (<= (+ (* 0 x1) (* 0 x2) (* 0 x3) (* 1 x4) (* 0 x5) (* 0 x6) (* 0 x7) (* 0 x8) ) 4466))
(assert (<= (+ (* 0 x1) (* 0 x2) (* 0 x3) (* (- 1) x4) (* 0 x5) (* 0 x6) (* 0 x7) (* 0 x8) ) 4466))
(assert (<= (+ (* 0 x1) (* 0 x2) (* 0 x3) (* 0 x4) (* 1 x5) (* 0 x6) (* 0 x7) (* 0 x8) ) 4466))
(assert (<= (+ (* 0 x1) (* 0 x2) (* 0 x3) (* 0 x4) (* (- 1) x5) (* 0 x6) (* 0 x7) (* 0 x8) ) 4466))
(assert (<= (+ (* 0 x1) (* 0 x2) (* 0 x3) (* 0 x4) (* 0 x5) (* 1 x6) (* 0 x7) (* 0 x8) ) 4466))
(assert (<= (+ (* 0 x1) (* 0 x2) (* 0 x3) (* 0 x4) (* 0 x5) (* (- 1) x6) (* 0 x7) (* 0 x8) ) 4466))
(assert (<= (+ (* 0 x1) (* 0 x2) (* 0 x3) (* 0 x4) (* 0 x5) (* 0 x6) (* 1 x7) (* 0 x8) ) 4466))
(assert (<= (+ (* 0 x1) (* 0 x2) (* 0 x3) (* 0 x4) (* 0 x5) (* 0 x6) (* (- 1) x7) (* 0 x8) ) 4466))
(assert (<= (+ (* 0 x1) (* 0 x2) (* 0 x3) (* 0 x4) (* 0 x5) (* 0 x6) (* 0 x7) (* 1 x8) ) 4466))
(assert (<= (+ (* 0 x1) (* 0 x2) (* 0 x3) (* 0 x4) (* 0 x5) (* 0 x6) (* 0 x7) (* (- 1) x8) ) 4466))
