mixintcount/benchmarks/random_v2l/8_8_4466.in
32 10
#	x1	x2	x3	x4	x5	x6	x7	x8;		0 = Real; 1 = Integer
	1	1	1	1	1	1	1	1
1	-10	-2	-2	1	-5	-9	7	0	-455
1	3	-10	4	10	8	10	7	2	656
1	-6	-9	-4	6	3	10	4	-7	581
1	-3	-6	-10	10	-6	-2	-4	5	-3738
1	-5	2	-9	1	-8	-9	-8	-9	2707
1	-10	7	-2	-8	-10	-1	-4	5	3360
1	-5	-2	-7	-9	3	-5	-10	2	802
1	-2	6	-8	10	-10	2	-10	1	3418
1	10	2	4	6	2	0	-7	2	-3730
1	1	8	-7	-2	-9	-1	-1	-10	1556
1	5	-10	1	-8	-1	-5	-8	-4	-3053
1	5	-6	5	-3	-9	-4	-10	7	-570
1	-1	8	-1	6	-4	-6	7	5	-2210
1	-5	-7	-6	-6	8	-6	3	8	-497
1	8	-10	5	-7	5	9	8	10	3410
1	-9	8	2	7	-6	0	-7	10	2289
1	1	0	0	0	0	0	0	0	4466
1	-1	0	0	0	0	0	0	0	4466
1	0	1	0	0	0	0	0	0	4466
1	0	-1	0	0	0	0	0	0	4466
1	0	0	1	0	0	0	0	0	4466
1	0	0	-1	0	0	0	0	0	4466
1	0	0	0	1	0	0	0	0	4466
1	0	0	0	-1	0	0	0	0	4466
1	0	0	0	0	1	0	0	0	4466
1	0	0	0	0	-1	0	0	0	4466
1	0	0	0	0	0	1	0	0	4466
1	0	0	0	0	0	-1	0	0	4466
1	0	0	0	0	0	0	1	0	4466
1	0	0	0	0	0	0	-1	0	4466
1	0	0	0	0	0	0	0	1	4466
1	0	0	0	0	0	0	0	-1	4466
